NAME: teste
TYPE: TSP
COMMENT: 6 teste
DIMENSION: 6
EDGE_WEIGHT_TYPE: EXPLICIT
EDGE_WEIGHT_FORMAT: FULL_MATRIX 
EDGE_WEIGHT_SECTION   
0 245 174 118 59 129
245 0 250 226 186 147
174 250 0 274 169 114
118 226 274 0 105 185
59 186 169 105 0 85
129 147 114 185 85 0
EOF

